/* Objective Function */
  min: 22 x11 + 14 x12 + 30 x13 + 16 x21 + 20 x22 + 24 x23 + 600 x11 + 600 x12 + 600 x13 + 625 x21 + 625 x22 + 625 x23;
  
/* Constraints */
 x11 + x12 + x13 <= 100;
 x21 + x22 + x23 <= 120;
 x11 + x21 >= 80;
 x12 + x22 >= 60;
 x13 + x23 >= 70;
 